column=7;
row=7;
Board=[|0,0,0,0,0,0,0|0,0,0,0,0,0,0|6,4,7,0,1,0,0|5,3,0,0,0,0,0|1,2,4,0,0,0,6|2,7,5,0,0,0,1|0,0,2,0,4,5,0|];
horizontal=[|0,0,0,0,0,1|0,0,0,0,1,0|0,0,0,0,1,0|0,0,0,0,0,0|1,0,0,0,0,0|0,0,1,0,1,0|1,0,1,0,1,0|];
vertical=[|1,0,0,1,0,1,0|0,1,0,1,0,0,0|1,1,1,1,0,1,1|0,1,0,0,0,0,0|1,0,1,1,0,1,0|0,1,0,0,1,1,0|];
